<?xml version = "1.0" encoding="UTF-8" standalone="yes"?>
<CPLEXSolution version="1.2">
 <header
   problemName="mknap01_7_cut_n3"
   objectiveValue="7388.2702501186868"
   solutionTypeValue="1"
   solutionTypeString="basic"
   solutionStatusValue="1"
   solutionStatusString="optimal"
   solutionMethodString="dual"
   primalFeasible="1"
   dualFeasible="1"
   simplexIterations="4"
   writeLevel="1"/>
 <quality
   epRHS="9.9999999999999995e-07"
   epOpt="9.9999999999999995e-07"
   maxPrimalInfeas="0"
   maxDualInfeas="0"
   maxPrimalResidual="1.9539925233402755e-14"
   maxDualResidual="0"
   maxX="1"
   maxPi="16546.806751168893"
   maxSlack="379.43808039042426"
   maxRedCost="15993.386090964199"
   kappa="10.504878817529525"/>
 <linearConstraints>
  <constraint name="c0" index="0" status="BS" slack="367.91181454618965" dual="-0"/>
  <constraint name="c1" index="1" status="BS" slack="340.50843896156402" dual="-0"/>
  <constraint name="c2" index="2" status="BS" slack="326.75421948078201" dual="-0"/>
  <constraint name="c3" index="3" status="BS" slack="370.05253168846923" dual="-0"/>
  <constraint name="c4" index="4" status="BS" slack="379.43808039042426" dual="-0"/>
  <constraint name="cut_1" index="5" status="BS" slack="0.39747847895343258" dual="-0"/>
  <constraint name="cut_2" index="6" status="BS" slack="0.40201992815020354" dual="-0"/>
  <constraint name="cut_3" index="7" status="LL" slack="0" dual="16546.806751168893"/>
 </linearConstraints>
 <variables>
  <variable name="x0" index="0" status="LL" value="0" reducedCost="-1625.0077950247019"/>
  <variable name="x1" index="1" status="UL" value="1" reducedCost="1125"/>
  <variable name="x2" index="2" status="LL" value="0" reducedCost="-5901.2987189044998"/>
  <variable name="x3" index="3" status="LL" value="0" reducedCost="-5248.0756456312765"/>
  <variable name="x4" index="4" status="LL" value="0" reducedCost="-8471.0255541243969"/>
  <variable name="x5" index="5" status="LL" value="0" reducedCost="-14837.344743441679"/>
  <variable name="x6" index="6" status="LL" value="0" reducedCost="-10430.114959668994"/>
  <variable name="x7" index="7" status="LL" value="0" reducedCost="-2710.8558259336487"/>
  <variable name="x8" index="8" status="LL" value="0" reducedCost="-3992.9688199009488"/>
  <variable name="x9" index="9" status="LL" value="0" reducedCost="-10556.297973293331"/>
  <variable name="x10" index="10" status="LL" value="0" reducedCost="-11882.656002168791"/>
  <variable name="x11" index="11" status="LL" value="0" reducedCost="-13518.121873516955"/>
  <variable name="x12" index="12" status="LL" value="0" reducedCost="-13897.917508303091"/>
  <variable name="x13" index="13" status="LL" value="0" reducedCost="-14921.527485934739"/>
  <variable name="x14" index="14" status="LL" value="0" reducedCost="-3870.5168440316293"/>
  <variable name="x15" index="15" status="BS" value="0.58245780519217982" reducedCost="0"/>
  <variable name="x16" index="16" status="LL" value="0" reducedCost="-9599.7500169454906"/>
  <variable name="x17" index="17" status="LL" value="0" reducedCost="-2760.9981020808718"/>
  <variable name="x18" index="18" status="LL" value="0" reducedCost="-9115.1300752387342"/>
  <variable name="x19" index="19" status="LL" value="0" reducedCost="-15504.78031586762"/>
  <variable name="x20" index="20" status="UL" value="1" reducedCost="631"/>
  <variable name="x21" index="21" status="LL" value="0" reducedCost="-1684.7010099640393"/>
  <variable name="x22" index="22" status="LL" value="0" reducedCost="-8065.3494204566814"/>
  <variable name="x23" index="23" status="LL" value="0" reducedCost="-7514.3158679588978"/>
  <variable name="x24" index="24" status="UL" value="1" reducedCost="42"/>
  <variable name="x25" index="25" status="LL" value="0" reducedCost="-10523.177726563859"/>
  <variable name="x26" index="26" status="LL" value="0" reducedCost="-15832.549650918107"/>
  <variable name="x27" index="27" status="LL" value="0" reducedCost="-10619.676472581616"/>
  <variable name="x28" index="28" status="LL" value="0" reducedCost="-3215.8203077339472"/>
  <variable name="x29" index="29" status="LL" value="0" reducedCost="-15007.875821866412"/>
  <variable name="x30" index="30" status="LL" value="0" reducedCost="-14747.663729410644"/>
  <variable name="x31" index="31" status="LL" value="0" reducedCost="-15634.479766826738"/>
  <variable name="x32" index="32" status="LL" value="0" reducedCost="-6023.6122822475354"/>
  <variable name="x33" index="33" status="LL" value="0" reducedCost="-6326.6626448856459"/>
  <variable name="x34" index="34" status="LL" value="0" reducedCost="-6299.3646715920804"/>
  <variable name="x35" index="35" status="UL" value="1" reducedCost="49"/>
  <variable name="x36" index="36" status="LL" value="0" reducedCost="-14463.868094624506"/>
  <variable name="x37" index="37" status="LL" value="0" reducedCost="-13064.936080796841"/>
  <variable name="x38" index="38" status="LL" value="0" reducedCost="-2995.9228631464139"/>
  <variable name="x39" index="39" status="LL" value="0" reducedCost="-9963.8314918997112"/>
  <variable name="x40" index="40" status="LL" value="0" reducedCost="-10970.443774147358"/>
  <variable name="x41" index="41" status="LL" value="0" reducedCost="-12093.296956550939"/>
  <variable name="x42" index="42" status="UL" value="1" reducedCost="1083.1844370636686"/>
  <variable name="x43" index="43" status="LL" value="0" reducedCost="-15993.386090964199"/>
  <variable name="x44" index="44" status="LL" value="0" reducedCost="-7167.0789669896076"/>
  <variable name="x45" index="45" status="LL" value="0" reducedCost="-4965.6905036262715"/>
  <variable name="x46" index="46" status="LL" value="0" reducedCost="-15352.762150070826"/>
  <variable name="x47" index="47" status="LL" value="0" reducedCost="-10453.330576831606"/>
  <variable name="x48" index="48" status="LL" value="0" reducedCost="-12378.986579000612"/>
  <variable name="x49" index="49" status="LL" value="0" reducedCost="-6857.2010438553361"/>
 </variables>
 <objectiveValues>
  <objective index="0" name="" value="7388.2702501186859"/>
 </objectiveValues>
</CPLEXSolution>
